
Gurobi 11.0.3 (linux64) logging started Sat Nov 23 12:33:16 2024

Set parameter LogFile to value "/home/yihong/Coding/OR_SUC/SUC_results_bigM100000_thread4/case24_ieee_rts_theta0.1_epsilon0.05_gurobi_seed1120000_num_gen100_N_WDR50_load_scaling_factor1_proposed_T24quadra_cost.txt"
Set parameter TimeLimit to value 3600
Gurobi Optimizer version 11.0.3 build v11.0.3rc0 (linux64 - "Ubuntu 20.04.6 LTS")

CPU model: AMD EPYC 7532 32-Core Processor, instruction set [SSE2|AVX|AVX2]
Thread count: 64 physical cores, 128 logical processors, using up to 4 threads

Optimize a model with 51892 rows, 29811 columns and 708694 nonzeros
Model fingerprint: 0x8f17601b
Model has 2400 quadratic constraints
Variable types: 27411 continuous, 2400 integer (2400 binary)
Coefficient statistics:
  Matrix range     [3e-04, 2e+03]
  QMatrix range    [2e-03, 8e-03]
  QLMatrix range   [6e-02, 6e+01]
  Objective range  [1e+00, 1e+00]
  Bounds range     [1e+00, 1e+00]
  RHS range        [1e+00, 9e+03]
Presolve removed 42056 rows and 12905 columns
Presolve time: 0.26s
Presolved: 9836 rows, 16906 columns, 62368 nonzeros
Presolved model has 2400 quadratic constraint(s)
Variable types: 14506 continuous, 2400 integer (2400 binary)

Root relaxation: objective 3.079044e+04, 7687 iterations, 0.20 seconds (0.29 work units)

    Nodes    |    Current Node    |     Objective Bounds      |     Work
 Expl Unexpl |  Obj  Depth IntInf | Incumbent    BestBd   Gap | It/Node Time

     0     0 30790.4356    0    -          - 30790.4356      -     -    0s
     0     0 322128.915    0  795          - 322128.915      -     -    1s
     0     0 595046.438    0  773          - 595046.438      -     -    1s
     0     0 595114.039    0  482          - 595114.039      -     -    1s
     0     0 595479.856    0  237          - 595479.856      -     -    1s
     0     0 595482.220    0  237          - 595482.220      -     -    1s
     0     0 595482.220    0  238          - 595482.220      -     -    1s
     0     0 595482.220    0  238          - 595482.220      -     -    1s
     0     2 595483.919    0  238          - 595483.919      -     -    2s
   364   436 596040.896  111   54          - 595493.200      -  19.6    5s
H  556   273                    595936.71303 595493.200  0.07%  18.9    6s
*  556   273             153    595936.71303 595493.200  0.07%  19.1    6s

Cutting planes:
  Gomory: 109
  Implied bound: 485
  MIR: 165
  Flow cover: 346
  RLT: 208

Explored 585 nodes (33356 simplex iterations) in 7.14 seconds (9.34 work units)
Thread count was 4 (of 128 available processors)

Solution count 2: 595937 595937 

Optimal solution found (tolerance 1.00e-03)
Warning: max constraint violation (2.4422e-07) exceeds tolerance
Best objective 5.959367130348e+05, best bound 5.954932000779e+05, gap 0.0744%
